Maximize
 obj: 0
Subject to

\true constraints
   65 X1
 +    89 X2
 +    74 X3
 +    91 X4
 +    96 X5
 +    69 X6
 +    84 X7
 +    97 X8
 +    66 X9
 +    85 X10
 +    75 X11
 +    80 X12
 +    65 X13
 +    90 X14
 +    68 X15
< 597.000000

\multiple objectives
   70 X1
 +    98 X2
 +    68 X3
 +    76 X4
 +    97 X5
 +    94 X6
 +    96 X7
 +    84 X8
 +    91 X9
 +    99 X10
 +    98 X11
 +    86 X12
 +    89 X13
 +    80 X14
 +    63 X15
> 1
   81 X1
 +    80 X2
 +    64 X3
 +    60 X4
 +    81 X5
 +    66 X6
 +    81 X7
 +    79 X8
 +    89 X9
 +    70 X10
 +    89 X11
 +    64 X12
 +    77 X13
 +    92 X14
 +    89 X15
> 2
   95 X1
 +    99 X2
 +    96 X3
 +    73 X4
 +    90 X5
 +    79 X6
 +    82 X7
 +    72 X8
 +    67 X9
 +    85 X10
 +    81 X11
 +    65 X12
 +    82 X13
 +    74 X14
 +    81 X15
> 3
   94 X1
 +    91 X2
 +    98 X3
 +    76 X4
 +    73 X5
 +    75 X6
 +    79 X7
 +    84 X8
 +    75 X9
 +    92 X10
 +    88 X11
 +    88 X12
 +    92 X13
 +    85 X14
 +    71 X15
> 4
   87 X1
 +    81 X2
 +    61 X3
 +    73 X4
 +    85 X5
 +    99 X6
 +    95 X7
 +    95 X8
 +    77 X9
 +    86 X10
 +    81 X11
 +    60 X12
 +    99 X13
 +    69 X14
 +    99 X15
> 5
   90 X1
 +    65 X2
 +    91 X3
 +    76 X4
 +    91 X5
 +    71 X6
 +    70 X7
 +    97 X8
 +    93 X9
 +    67 X10
 +    82 X11
 +    65 X12
 +    97 X13
 +    74 X14
 +    65 X15
> 6
   70 X1
 +    92 X2
 +    90 X3
 +    73 X4
 +    82 X5
 +    64 X6
 +    71 X7
 +    67 X8
 +    87 X9
 +    91 X10
 +    89 X11
 +    88 X12
 +    89 X13
 +    84 X14
 +    78 X15
> 7
   87 X1
 +    96 X2
 +    70 X3
 +    92 X4
 +    73 X5
 +    90 X6
 +    65 X7
 +    62 X8
 +    62 X9
 +    98 X10
 +    96 X11
 +    93 X12
 +    93 X13
 +    99 X14
 +    66 X15
> 8
BINARY
X1
X2
X3
X4
X5
X6
X7
X8
X9
X10
X11
X12
X13
X14
X15
END
